Minimize
  - 59 y_0 - 67 y_1 - 108 y_2 - 72 y_3 - 62 y_4 - 19 y_6 - 90 y_7 - 83 y_8
   - 94 y_9 - 111 y_10 - 93 y_11 - 81 y_12 - 77 y_13 - 82 y_14 - 99 y_15
   - 31 y_16 - 55 y_17 - 83 y_18 - 64 y_19 - 91 y_20 - 89 y_21 - 119 y_22
   - 95 y_23 - 30 y_24 - 88 y_25 - 118 y_26 - 81 y_27 - 101 y_28 - 68 y_29
   - 53 y_30 - 59 y_31 - 96 y_32 - 66 y_33 - 64 y_34 - 126 y_35 - 41 y_36
   - 39 y_37 - 16 y_38 - 97 y_39 - 23 y_40 - 121 y_41 - 19 y_42 - 133 y_43
   - 86 y_44 - 92 y_45 - 55 y_46 - 97 y_47 - 39 y_48 - 85 y_49
   + 3717 Constant
Subject To
 c_0: y_43 = 1
 c_1_0: y_0 >= 1
 c_1_1: y_1 >= 1
 c_1_2: y_2 >= 1
 c_1_3: y_3 >= 1
 c_1_4: y_4 + y_31 >= 1
 c_1_5: y_5 >= 1
 c_1_6: y_6 + y_42 >= 1
 c_1_7: y_7 >= 1
 c_1_8: y_8 + y_14 + y_44 >= 1
 c_1_9: y_9 >= 1
 c_1_10: y_10 >= 1
 c_1_11: y_11 + y_39 >= 1
 c_1_12: y_12 >= 1
 c_1_13: y_13 + y_27 >= 1
 c_1_14: y_8 + y_14 >= 1
 c_1_15: y_15 >= 1
 c_1_16: y_16 + y_24 >= 1
 c_1_17: y_17 + y_30 >= 1
 c_1_18: y_18 + y_49 >= 1
 c_1_19: y_19 + y_33 >= 1
 c_1_20: y_20 >= 1
 c_1_21: y_21 >= 1
 c_1_22: y_22 >= 1
 c_1_23: y_23 >= 1
 c_1_24: y_16 + y_24 >= 1
 c_1_25: y_25 >= 1
 c_1_26: y_26 >= 1
 c_1_27: y_13 + y_27 >= 1
 c_1_28: y_28 >= 1
 c_1_29: y_29 >= 1
 c_1_30: y_17 + y_30 >= 1
 c_1_31: y_4 + y_31 >= 1
 c_1_32: y_32 >= 1
 c_1_33: y_19 + y_33 >= 1
 c_1_34: y_34 >= 1
 c_1_35: y_35 + y_41 >= 1
 c_1_36: y_36 >= 1
 c_1_37: y_37 >= 1
 c_1_38: y_38 >= 1
 c_1_39: y_11 + y_39 >= 1
 c_1_40: y_40 >= 1
 c_1_41: y_35 + y_41 >= 1
 c_1_42: y_6 + y_42 >= 1
 c_1_43: y_43 >= 1
 c_1_44: y_8 + y_44 >= 1
 c_1_45: y_45 >= 1
 c_1_46: y_46 >= 1
 c_1_47: y_47 >= 1
 c_1_48: y_48 >= 1
 c_1_49: y_18 + y_49 >= 1
Bounds
 Constant = 1
Binaries
 y_0 y_1 y_2 y_3 y_4 y_5 y_6 y_7 y_8 y_9 y_10 y_11 y_12 y_13 y_14 y_15 y_16
 y_17 y_18 y_19 y_20 y_21 y_22 y_23 y_24 y_25 y_26 y_27 y_28 y_29 y_30 y_31
 y_32 y_33 y_34 y_35 y_36 y_37 y_38 y_39 y_40 y_41 y_42 y_43 y_44 y_45 y_46
 y_47 y_48 y_49
End
